c SAT instance with 12 variables
c Represents a constraint network with multiple implications
c Generated by Claude
p cnf 12 15
1 2 3 0
-1 -2 0
2 -4 5 0
-3 4 -6 0
5 6 -7 0
7 8 -9 0
-8 10 11 0
-5 -10 0
9 -11 12 0
-7 -12 0
4 8 0
-6 -9 0
1 -3 10 0
-2 7 11 0
-4 -8 12 0